50
    1    95   218
    2   167   419
    3   177     5
    4   321   426
    5   222    15
    6   474   464
    7    22    28
    8   292   318
    9   307   260
   10   163   221
   11   364   410
   12   164   458
   13   220   203
   14   311    71
   15     4   267
   16   197    91
   17    27   272
   18   111   307
   19    59   224
   20   254    49
   21   446   164
   22   272    78
   23   237   447
   24   481   257
   25   446   319
   26   207   207
   27   433   401
   28    76   226
   29   111    60
   30   153   446
   31   398   380
   32   221   342
   33   489   246
   34   256   408
   35   244   303
   36    82   376
   37   350   155
   38   496   447
   39   155   179
   40   276   297
   41    69     2
   42   350   420
   43   114   165
   44   292   312
   45   195   182
   46   136   453
   47   105    40
   48   145   472
   49    45    50
   50   390   323
6441
